DIMENSION: 6
EDGE_WEIGHT_TYPE: EXPLICIT
EDGE_WEIGHT_FORMAT: FULL_MATRIX
EDGE_WEIGHT_SECTION:
32767 77 32767 32767 72 32767 
77 32767 32767 54 32767 32767 
32767 32767 32767 23 32767 50 
32767 54 23 32767 32767 32767 
72 32767 32767 32767 32767 90 
32767 32767 50 32767 90 32767 
EOF